c Output_time 26.03.2020 18:13:18_+0100 1585242798897898189
c ** Program information **
c program_name                          "QBRG_debug"
c version                               "0.3.20"
c date                                  "25.3.2020"
c gid_id                                "673970833836058123f633335630c185360d632e"
c author                                "Oliver Kullmann"
c url                                   "https://github.com/OKullmann/oklibrary/blob/master/Satisfiability/Transformers/Generators/Random/QBRG.cpp"
c ** Machine information **
c machine_name                          "chyna-Lenovo-G50-70"
c bogomips                              3791.08
c ** Compilation information **
c compiler_version                      "g++ 7.5.0"
c compilation_date                      "Mar_26_2020 11:16:30"
c compilation_options                   "--std=c++17 -pedantic -fmax-errors=5 -Wall -Wextra -g -D_GLIBCXX_DEBUG"
c NDEBUG                                0
c OPTIMIZE                              0
c ** Parameters **
c command-line                          "./QBRG_debug" "e40 a40 40" "397*1,1|2-2,1|3-3,1" "" "1,t" ""
c output                                "QuBlRaGe_120_397_1585242798843974440.qdimacs"
c options                               "filtered,renamed"
c num_quantifier_blocks                 3
c  quantifier_blocks                    1:e1-40 2:a41-80 3:e81-120
c num_clause-blocks                     1
c  clause-blocks                        397 * {1-40,1,1/2} | {41-80,1,1/2} | {81-120,1,1/2}
c num_e-seeds                           30+2=32
c  e-seeds                              1 0 1 0 4 120 2 40 1 40 0 40 1 397 3 1 1 1 1 2 2 2 1 1 2 3 3 1 1 2 1 1585242798843973765
p cnf 120 397
e 1 2 3 4 5 6 7 8 9 10 11 12 13 14 15 16 17 18 19 20 21 22 23 24 25 26 27 28 29 30 31 32 33 34 35 36 37 38 39 40 0
a 41 42 43 44 45 46 47 48 49 50 51 52 53 54 55 56 57 58 59 60 61 62 63 64 65 66 67 68 69 70 71 72 73 74 75 76 77 78 79 80 0
e 81 82 83 84 85 86 87 88 89 90 91 92 93 94 95 96 97 98 99 100 101 102 103 104 105 106 107 108 109 110 111 112 113 114 115 116 117 118 119 120 0
-18 -50 -81 0
12 61 -81 0
26 63 -81 0
32 66 -81 0
-35 67 -81 0
37 68 -81 0
38 79 -81 0
25 43 81 0
-3 44 81 0
4 47 81 0
32 59 81 0
6 -70 81 0
33 78 81 0
-12 -50 -82 0
-34 -75 -82 0
-7 80 -82 0
35 56 82 0
28 57 82 0
-32 63 82 0
28 -78 82 0
-37 80 82 0
5 -45 -83 0
-26 -52 -83 0
-35 53 -83 0
-7 64 -83 0
-25 -65 -83 0
1 72 -83 0
-40 75 -83 0
34 -47 83 0
3 53 83 0
-2 59 83 0
-33 -65 83 0
23 -73 83 0
37 -43 -84 0
-13 62 -84 0
-13 64 -84 0
20 75 -84 0
22 -61 84 0
27 65 84 0
32 -78 84 0
5 -44 -85 0
18 -45 -85 0
3 66 -85 0
-16 -69 -85 0
39 69 -85 0
31 80 -85 0
-31 50 85 0
24 -53 85 0
27 53 85 0
-2 -54 85 0
-6 56 85 0
17 -57 85 0
39 -46 -86 0
16 50 -86 0
14 44 86 0
30 67 86 0
-16 73 86 0
29 -77 86 0
5 41 -87 0
2 47 -87 0
-21 48 -87 0
9 53 -87 0
33 -65 -87 0
-2 66 -87 0
29 57 87 0
22 -79 87 0
-8 -43 -88 0
-5 46 -88 0
-22 58 -88 0
12 59 -88 0
-1 -70 -88 0
-23 51 88 0
-26 -52 88 0
36 -54 88 0
-36 -60 88 0
-30 -62 88 0
36 -63 88 0
-36 64 88 0
-26 44 -89 0
-18 -47 -89 0
-10 -53 -89 0
-39 54 -89 0
27 -63 -89 0
11 72 -89 0
-26 78 -89 0
4 -41 89 0
-17 -41 89 0
-7 -44 89 0
12 -75 89 0
-12 -41 -90 0
-6 -57 -90 0
22 -65 -90 0
-30 80 -90 0
3 42 90 0
24 42 90 0
16 -43 90 0
-32 -46 90 0
-20 46 90 0
29 59 90 0
38 -70 90 0
-36 -77 90 0
19 52 -91 0
-34 67 -91 0
-9 -73 -91 0
-12 73 -91 0
23 -76 -91 0
-39 56 91 0
-1 57 91 0
16 -67 91 0
4 70 91 0
-2 -65 -92 0
-29 -65 -92 0
-29 -66 -92 0
5 41 92 0
40 46 92 0
29 62 92 0
-3 70 92 0
3 -48 -93 0
20 -48 -93 0
28 64 -93 0
-18 -67 -93 0
-10 70 -93 0
2 -57 93 0
-27 64 93 0
23 -70 93 0
17 80 93 0
-28 43 -94 0
-15 -52 -94 0
33 -59 -94 0
-23 63 -94 0
26 73 -94 0
11 41 94 0
12 44 94 0
16 -47 94 0
-25 -55 94 0
31 -64 94 0
38 -69 94 0
33 78 94 0
27 45 -95 0
40 48 -95 0
-28 60 -95 0
26 -63 95 0
29 76 95 0
-26 -42 -96 0
-29 -45 -96 0
2 57 -96 0
-6 -73 -96 0
-8 75 -96 0
-33 -76 -96 0
13 43 96 0
2 45 96 0
20 52 96 0
-7 53 96 0
-38 71 96 0
33 80 96 0
10 41 -97 0
35 -62 -97 0
8 70 -97 0
-18 -76 -97 0
13 -79 -97 0
26 80 -97 0
5 -42 97 0
-7 -45 97 0
-27 -52 97 0
32 54 97 0
-14 -66 97 0
-12 66 97 0
3 -41 -98 0
37 -66 -98 0
-32 -76 -98 0
4 48 98 0
-10 -65 98 0
-9 -66 98 0
-16 -72 98 0
29 -73 98 0
15 75 98 0
22 43 -99 0
-5 64 -99 0
26 73 -99 0
-27 56 99 0
-17 -73 99 0
-8 55 -100 0
35 -61 -100 0
-5 73 -100 0
29 43 100 0
39 43 100 0
-32 -47 100 0
-21 57 100 0
-12 59 100 0
-2 -79 100 0
-27 -80 100 0
-12 -41 -101 0
31 -51 -101 0
-12 -57 -101 0
-40 72 -101 0
-33 -41 101 0
-28 -54 101 0
-17 -71 101 0
-23 74 101 0
17 44 -102 0
21 47 -102 0
38 51 -102 0
9 -55 -102 0
32 56 -102 0
-15 69 -102 0
-9 70 -102 0
-33 -46 102 0
-40 55 102 0
21 60 102 0
13 74 102 0
-26 54 -103 0
-33 55 -103 0
-38 -61 -103 0
-28 62 -103 0
28 62 -103 0
-11 69 -103 0
-21 -71 -103 0
25 -74 -103 0
-7 -75 -103 0
19 49 103 0
-26 63 103 0
-4 -76 103 0
24 77 103 0
11 43 -104 0
4 58 -104 0
-22 64 -104 0
17 78 -104 0
7 -44 104 0
35 45 104 0
21 50 104 0
39 -57 104 0
26 -60 104 0
1 67 104 0
-29 70 104 0
29 76 104 0
8 80 104 0
-5 43 -105 0
19 56 -105 0
-23 59 -105 0
-21 77 -105 0
-14 57 105 0
-3 58 105 0
16 68 105 0
11 76 105 0
13 -47 -106 0
3 -71 -106 0
-18 -74 -106 0
11 -47 106 0
-8 -54 106 0
-18 74 106 0
-20 -76 106 0
-17 48 -107 0
27 -49 -107 0
-27 -51 -107 0
14 51 -107 0
34 -68 -107 0
6 -79 107 0
-37 -80 107 0
-11 58 -108 0
-21 -69 -108 0
-30 59 108 0
24 61 108 0
-4 76 108 0
-1 78 108 0
36 -43 -109 0
7 -46 -109 0
9 48 -109 0
7 -50 -109 0
23 50 -109 0
36 -53 -109 0
30 -59 -109 0
28 63 -109 0
-8 -64 -109 0
-11 64 -109 0
-39 -65 -109 0
17 -69 -109 0
-7 -70 -109 0
27 -70 -109 0
36 72 -109 0
38 -45 109 0
-24 46 109 0
39 -48 109 0
29 63 109 0
6 65 109 0
21 73 109 0
-9 78 109 0
-27 78 109 0
23 79 109 0
-4 47 -110 0
19 47 -110 0
23 -78 -110 0
-26 -47 110 0
-27 -48 110 0
-8 -50 110 0
19 -76 110 0
20 -78 110 0
26 -78 110 0
8 -48 -111 0
-12 56 -111 0
-19 -59 -111 0
27 -63 -111 0
36 72 -111 0
-35 76 -111 0
37 -43 111 0
16 -51 111 0
-35 -57 111 0
-20 70 111 0
-6 71 111 0
21 -41 -112 0
-21 -51 -112 0
-31 52 -112 0
-4 64 -112 0
4 -70 -112 0
35 -55 112 0
-32 57 112 0
-18 -79 112 0
-40 45 -113 0
-30 -56 -113 0
5 -64 -113 0
-39 68 -113 0
-30 -75 -113 0
-18 44 113 0
24 -60 113 0
-18 -78 113 0
-9 46 -114 0
-39 -47 -114 0
-23 49 -114 0
-24 -50 -114 0
-13 -78 -114 0
31 45 114 0
9 -54 114 0
-4 79 114 0
1 52 -115 0
-36 57 -115 0
32 -61 -115 0
-4 -62 -115 0
-5 -62 -115 0
24 -62 -115 0
15 -65 -115 0
-18 67 -115 0
27 77 -115 0
21 -78 -115 0
19 -49 115 0
-7 -65 115 0
23 77 115 0
33 -78 115 0
-21 -47 -116 0
36 -54 -116 0
5 57 -116 0
-40 71 -116 0
34 45 116 0
6 -77 116 0
-22 -51 -117 0
-16 -54 -117 0
29 -54 -117 0
-11 58 -117 0
40 -62 -117 0
-39 80 -117 0
-35 -41 117 0
31 49 117 0
-39 49 117 0
28 -56 117 0
37 -68 117 0
-32 70 117 0
8 71 117 0
39 -45 -118 0
20 53 -118 0
-21 -41 118 0
-24 -41 118 0
9 47 118 0
-38 49 118 0
30 -79 118 0
35 41 -119 0
27 -44 -119 0
-17 -49 -119 0
-39 64 -119 0
-36 66 -119 0
-9 73 -119 0
-36 46 119 0
-15 -47 119 0
37 -52 119 0
-38 -53 119 0
-6 -55 119 0
-11 -58 119 0
-28 -65 119 0
2 -78 119 0
8 41 -120 0
30 42 -120 0
37 42 -120 0
4 -47 -120 0
28 -61 -120 0
19 67 -120 0
31 -72 -120 0
26 -43 120 0
-28 46 120 0
-1 62 120 0
31 70 120 0
